500
200 200
1 159 574
2 159 286
3 159 486
4 159 445
5 159 236
6 159 119
7 159 459
8 159 962
9 158 866
10 158 932
11 158 151
12 157 118
13 157 392
14 157 886
15 157 949
16 157 826
17 157 104
18 156 188
19 156 181
20 156 610
21 155 83
22 155 734
23 155 531
24 155 705
25 154 758
26 154 611
27 154 379
28 154 635
29 154 954
30 153 528
31 153 274
32 153 339
33 152 639
34 152 783
35 152 679
36 152 480
37 151 960
38 151 472
39 150 235
40 150 125
41 150 841
42 149 438
43 149 934
44 149 946
45 149 171
46 149 148
47 148 557
48 147 678
49 147 847
50 147 304
51 147 549
52 147 691
53 146 80
54 146 479
55 146 481
56 145 676
57 145 303
58 145 668
59 145 365
60 144 166
61 144 717
62 144 206
63 144 133
64 144 584
65 144 546
66 143 827
67 142 388
68 141 829
69 141 509
70 141 872
71 141 597
72 140 152
73 140 897
74 140 834
75 140 584
76 139 531
77 139 799
78 138 489
79 138 937
80 138 336
81 138 441
82 137 6
83 137 40
84 137 959
85 137 867
86 137 620
87 136 517
88 136 381
89 136 266
90 135 594
91 135 66
92 135 934
93 135 55
94 135 757
95 135 991
96 134 823
97 134 795
98 134 272
99 134 554
100 134 860
101 132 534
102 132 658
103 132 687
104 132 752
105 132 410
106 132 46
107 132 959
108 132 722
109 132 197
110 131 474
111 131 797
112 131 160
113 130 592
114 130 557
115 130 153
116 130 753
117 130 667
118 129 406
119 129 969
120 129 953
121 128 982
122 128 475
123 128 41
124 128 163
125 127 236
126 127 768
127 127 379
128 127 687
129 127 340
130 126 862
131 126 15
132 125 723
133 125 150
134 125 908
135 124 41
136 124 981
137 123 513
138 123 478
139 123 90
140 122 699
141 122 40
142 122 957
143 122 316
144 122 658
145 121 314
146 120 372
147 120 616
148 120 66
149 120 339
150 120 740
151 119 907
152 119 658
153 119 682
154 119 614
155 118 155
156 118 320
157 118 42
158 118 896
159 118 815
160 118 683
161 118 713
162 117 714
163 117 599
164 116 778
165 116 342
166 116 483
167 115 156
168 115 700
169 114 332
170 113 429
171 113 612
172 113 618
173 113 564
174 112 42
175 112 240
176 112 857
177 112 25
178 112 929
179 111 82
180 111 502
181 111 557
182 111 623
183 111 918
184 111 149
185 111 138
186 111 402
187 111 891
188 111 714
189 110 518
190 110 268
191 110 632
192 110 832
193 110 183
194 110 860
195 110 686
196 109 926
197 108 281
198 108 678
199 108 438
200 108 145
201 108 550
202 108 593
203 108 162
204 108 233
205 108 878
206 107 799
207 107 434
208 107 556
209 106 19
210 106 435
211 106 234
212 106 218
213 105 76
214 105 549
215 105 383
216 104 634
217 104 509
218 104 50
219 103 842
220 103 994
221 103 8
222 103 451
223 103 168
224 102 481
225 102 951
226 102 159
227 102 793
228 102 921
229 102 605
230 102 861
231 101 589
232 101 355
233 101 306
234 100 512
235 100 911
236 99 381
237 99 878
238 99 216
239 99 300
240 98 25
241 98 671
242 98 705
243 98 562
244 98 306
245 97 164
246 96 72
247 96 915
248 96 953
249 95 445
250 95 816
251 95 857
252 95 376
253 94 446
254 94 207
255 94 434
256 94 625
257 93 176
258 93 464
259 93 996
260 93 159
261 92 533
262 92 517
263 92 984
264 91 323
265 91 429
266 91 464
267 91 673
268 91 793
269 91 104
270 90 97
271 90 657
272 90 306
273 90 372
274 89 640
275 89 552
276 89 44
277 89 268
278 89 261
279 88 20
280 88 488
281 88 594
282 87 786
283 87 287
284 87 400
285 87 413
286 87 774
287 87 615
288 87 818
289 87 767
290 86 302
291 86 692
292 86 720
293 86 58
294 86 862
295 86 558
296 86 682
297 86 418
298 86 117
299 85 619
300 85 585
301 85 189
302 85 404
303 85 252
304 85 339
305 84 499
306 84 778
307 84 809
308 84 135
309 83 751
310 83 325
311 82 106
312 82 652
313 82 57
314 82 119
315 82 239
316 81 26
317 81 683
318 81 561
319 81 908
320 81 924
321 81 14
322 81 502
323 81 191
324 80 960
325 80 317
326 80 264
327 80 346
328 80 852
329 79 810
330 79 470
331 79 156
332 78 405
333 78 528
334 78 988
335 78 717
336 77 427
337 77 732
338 76 471
339 76 113
340 76 155
341 76 224
342 76 742
343 76 839
344 76 408
345 76 428
346 75 971
347 75 700
348 74 299
349 74 956
350 74 640
351 74 887
352 74 286
353 74 193
354 73 840
355 73 591
356 72 464
357 72 572
358 71 219
359 71 188
360 71 754
361 71 335
362 71 850
363 71 128
364 70 775
365 70 308
366 69 155
367 69 966
368 69 931
369 69 665
370 69 156
371 68 331
372 68 172
373 68 359
374 68 614
375 67 401
376 67 15
377 67 246
378 67 84
379 66 553
380 66 53
381 66 632
382 66 394
383 66 301
384 66 554
385 66 253
386 65 323
387 65 762
388 65 233
389 65 219
390 65 882
391 65 803
392 65 143
393 65 888
394 65 719
395 64 127
396 64 391
397 64 866
398 63 814
399 63 107
400 63 697
401 63 580
402 62 286
403 62 178
404 62 125
405 62 355
406 62 285
407 61 52
408 61 698
409 61 835
410 61 910
411 60 254
412 60 882
413 60 649
414 60 188
415 60 84
416 59 846
417 59 441
418 59 916
419 58 190
420 58 617
421 58 776
422 58 672
423 58 258
424 58 393
425 57 745
426 57 925
427 57 957
428 57 280
429 57 454
430 57 995
431 57 163
432 57 154
433 57 766
434 57 527
435 56 922
436 56 860
437 56 311
438 56 438
439 56 58
440 56 643
441 55 716
442 55 370
443 55 205
444 55 159
445 55 245
446 55 808
447 55 621
448 54 544
449 54 110
450 54 658
451 53 669
452 53 659
453 53 749
454 53 819
455 53 869
456 53 883
457 52 289
458 52 558
459 51 547
460 51 471
461 50 8
462 50 368
463 50 315
464 50 304
465 50 683
466 50 189
467 49 905
468 49 992
469 49 329
470 48 186
471 48 314
472 48 94
473 47 441
474 47 581
475 46 556
476 46 263
477 46 675
478 45 287
479 45 938
480 45 841
481 44 956
482 44 372
483 44 837
484 44 681
485 44 424
486 43 156
487 43 317
488 43 89
489 43 169
490 42 368
491 42 110
492 42 838
493 42 385
494 42 814
495 41 958
496 41 68
497 40 49
498 40 796
499 40 605
500 40 347
